c description: There is a graph of 4 vertices with a 7-clique and a 7-coloring
c generator: CNFgen (0.9.0)
c copyright: (C) 2012-2020 Massimo Lauria <massimo.lauria@uniroma1.it>
c url: https://massimolauria.net/cnfgen
c
p cnf 62 515
-7 -8 0
-7 -9 0
-7 -10 0
-8 -9 0
-8 -10 0
-9 -10 0
7 8 9 10 0
-11 -12 0
-11 -13 0
-11 -14 0
-12 -13 0
-12 -14 0
-13 -14 0
11 12 13 14 0
-15 -16 0
-15 -17 0
-15 -18 0
-16 -17 0
-16 -18 0
-17 -18 0
15 16 17 18 0
-19 -20 0
-19 -21 0
-19 -22 0
-20 -21 0
-20 -22 0
-21 -22 0
19 20 21 22 0
-23 -24 0
-23 -25 0
-23 -26 0
-24 -25 0
-24 -26 0
-25 -26 0
23 24 25 26 0
-27 -28 0
-27 -29 0
-27 -30 0
-28 -29 0
-28 -30 0
-29 -30 0
27 28 29 30 0
-31 -32 0
-31 -33 0
-31 -34 0
-32 -33 0
-32 -34 0
-33 -34 0
31 32 33 34 0
-7 -11 0
-7 -15 0
-7 -19 0
-7 -23 0
-7 -27 0
-7 -31 0
-11 -15 0
-11 -19 0
-11 -23 0
-11 -27 0
-11 -31 0
-15 -19 0
-15 -23 0
-15 -27 0
-15 -31 0
-19 -23 0
-19 -27 0
-19 -31 0
-23 -27 0
-23 -31 0
-27 -31 0
-8 -12 0
-8 -16 0
-8 -20 0
-8 -24 0
-8 -28 0
-8 -32 0
-12 -16 0
-12 -20 0
-12 -24 0
-12 -28 0
-12 -32 0
-16 -20 0
-16 -24 0
-16 -28 0
-16 -32 0
-20 -24 0
-20 -28 0
-20 -32 0
-24 -28 0
-24 -32 0
-28 -32 0
-9 -13 0
-9 -17 0
-9 -21 0
-9 -25 0
-9 -29 0
-9 -33 0
-13 -17 0
-13 -21 0
-13 -25 0
-13 -29 0
-13 -33 0
-17 -21 0
-17 -25 0
-17 -29 0
-17 -33 0
-21 -25 0
-21 -29 0
-21 -33 0
-25 -29 0
-25 -33 0
-29 -33 0
-10 -14 0
-10 -18 0
-10 -22 0
-10 -26 0
-10 -30 0
-10 -34 0
-14 -18 0
-14 -22 0
-14 -26 0
-14 -30 0
-14 -34 0
-18 -22 0
-18 -26 0
-18 -30 0
-18 -34 0
-22 -26 0
-22 -30 0
-22 -34 0
-26 -30 0
-26 -34 0
-30 -34 0
1 -7 -12 0
1 -7 -16 0
1 -7 -20 0
1 -7 -24 0
1 -7 -28 0
1 -7 -32 0
1 -11 -8 0
1 -11 -16 0
1 -11 -20 0
1 -11 -24 0
1 -11 -28 0
1 -11 -32 0
1 -15 -8 0
1 -15 -12 0
1 -15 -20 0
1 -15 -24 0
1 -15 -28 0
1 -15 -32 0
1 -19 -8 0
1 -19 -12 0
1 -19 -16 0
1 -19 -24 0
1 -19 -28 0
1 -19 -32 0
1 -23 -8 0
1 -23 -12 0
1 -23 -16 0
1 -23 -20 0
1 -23 -28 0
1 -23 -32 0
1 -27 -8 0
1 -27 -12 0
1 -27 -16 0
1 -27 -20 0
1 -27 -24 0
1 -27 -32 0
1 -31 -8 0
1 -31 -12 0
1 -31 -16 0
1 -31 -20 0
1 -31 -24 0
1 -31 -28 0
2 -7 -13 0
2 -7 -17 0
2 -7 -21 0
2 -7 -25 0
2 -7 -29 0
2 -7 -33 0
2 -11 -9 0
2 -11 -17 0
2 -11 -21 0
2 -11 -25 0
2 -11 -29 0
2 -11 -33 0
2 -15 -9 0
2 -15 -13 0
2 -15 -21 0
2 -15 -25 0
2 -15 -29 0
2 -15 -33 0
2 -19 -9 0
2 -19 -13 0
2 -19 -17 0
2 -19 -25 0
2 -19 -29 0
2 -19 -33 0
2 -23 -9 0
2 -23 -13 0
2 -23 -17 0
2 -23 -21 0
2 -23 -29 0
2 -23 -33 0
2 -27 -9 0
2 -27 -13 0
2 -27 -17 0
2 -27 -21 0
2 -27 -25 0
2 -27 -33 0
2 -31 -9 0
2 -31 -13 0
2 -31 -17 0
2 -31 -21 0
2 -31 -25 0
2 -31 -29 0
3 -7 -14 0
3 -7 -18 0
3 -7 -22 0
3 -7 -26 0
3 -7 -30 0
3 -7 -34 0
3 -11 -10 0
3 -11 -18 0
3 -11 -22 0
3 -11 -26 0
3 -11 -30 0
3 -11 -34 0
3 -15 -10 0
3 -15 -14 0
3 -15 -22 0
3 -15 -26 0
3 -15 -30 0
3 -15 -34 0
3 -19 -10 0
3 -19 -14 0
3 -19 -18 0
3 -19 -26 0
3 -19 -30 0
3 -19 -34 0
3 -23 -10 0
3 -23 -14 0
3 -23 -18 0
3 -23 -22 0
3 -23 -30 0
3 -23 -34 0
3 -27 -10 0
3 -27 -14 0
3 -27 -18 0
3 -27 -22 0
3 -27 -26 0
3 -27 -34 0
3 -31 -10 0
3 -31 -14 0
3 -31 -18 0
3 -31 -22 0
3 -31 -26 0
3 -31 -30 0
4 -8 -13 0
4 -8 -17 0
4 -8 -21 0
4 -8 -25 0
4 -8 -29 0
4 -8 -33 0
4 -12 -9 0
4 -12 -17 0
4 -12 -21 0
4 -12 -25 0
4 -12 -29 0
4 -12 -33 0
4 -16 -9 0
4 -16 -13 0
4 -16 -21 0
4 -16 -25 0
4 -16 -29 0
4 -16 -33 0
4 -20 -9 0
4 -20 -13 0
4 -20 -17 0
4 -20 -25 0
4 -20 -29 0
4 -20 -33 0
4 -24 -9 0
4 -24 -13 0
4 -24 -17 0
4 -24 -21 0
4 -24 -29 0
4 -24 -33 0
4 -28 -9 0
4 -28 -13 0
4 -28 -17 0
4 -28 -21 0
4 -28 -25 0
4 -28 -33 0
4 -32 -9 0
4 -32 -13 0
4 -32 -17 0
4 -32 -21 0
4 -32 -25 0
4 -32 -29 0
5 -8 -14 0
5 -8 -18 0
5 -8 -22 0
5 -8 -26 0
5 -8 -30 0
5 -8 -34 0
5 -12 -10 0
5 -12 -18 0
5 -12 -22 0
5 -12 -26 0
5 -12 -30 0
5 -12 -34 0
5 -16 -10 0
5 -16 -14 0
5 -16 -22 0
5 -16 -26 0
5 -16 -30 0
5 -16 -34 0
5 -20 -10 0
5 -20 -14 0
5 -20 -18 0
5 -20 -26 0
5 -20 -30 0
5 -20 -34 0
5 -24 -10 0
5 -24 -14 0
5 -24 -18 0
5 -24 -22 0
5 -24 -30 0
5 -24 -34 0
5 -28 -10 0
5 -28 -14 0
5 -28 -18 0
5 -28 -22 0
5 -28 -26 0
5 -28 -34 0
5 -32 -10 0
5 -32 -14 0
5 -32 -18 0
5 -32 -22 0
5 -32 -26 0
5 -32 -30 0
6 -9 -14 0
6 -9 -18 0
6 -9 -22 0
6 -9 -26 0
6 -9 -30 0
6 -9 -34 0
6 -13 -10 0
6 -13 -18 0
6 -13 -22 0
6 -13 -26 0
6 -13 -30 0
6 -13 -34 0
6 -17 -10 0
6 -17 -14 0
6 -17 -22 0
6 -17 -26 0
6 -17 -30 0
6 -17 -34 0
6 -21 -10 0
6 -21 -14 0
6 -21 -18 0
6 -21 -26 0
6 -21 -30 0
6 -21 -34 0
6 -25 -10 0
6 -25 -14 0
6 -25 -18 0
6 -25 -22 0
6 -25 -30 0
6 -25 -34 0
6 -29 -10 0
6 -29 -14 0
6 -29 -18 0
6 -29 -22 0
6 -29 -26 0
6 -29 -34 0
6 -33 -10 0
6 -33 -14 0
6 -33 -18 0
6 -33 -22 0
6 -33 -26 0
6 -33 -30 0
-35 -36 0
-35 -37 0
-35 -38 0
-35 -39 0
-35 -40 0
-35 -41 0
-36 -37 0
-36 -38 0
-36 -39 0
-36 -40 0
-36 -41 0
-37 -38 0
-37 -39 0
-37 -40 0
-37 -41 0
-38 -39 0
-38 -40 0
-38 -41 0
-39 -40 0
-39 -41 0
-40 -41 0
35 36 37 38 39 40 41 0
-42 -43 0
-42 -44 0
-42 -45 0
-42 -46 0
-42 -47 0
-42 -48 0
-43 -44 0
-43 -45 0
-43 -46 0
-43 -47 0
-43 -48 0
-44 -45 0
-44 -46 0
-44 -47 0
-44 -48 0
-45 -46 0
-45 -47 0
-45 -48 0
-46 -47 0
-46 -48 0
-47 -48 0
42 43 44 45 46 47 48 0
-49 -50 0
-49 -51 0
-49 -52 0
-49 -53 0
-49 -54 0
-49 -55 0
-50 -51 0
-50 -52 0
-50 -53 0
-50 -54 0
-50 -55 0
-51 -52 0
-51 -53 0
-51 -54 0
-51 -55 0
-52 -53 0
-52 -54 0
-52 -55 0
-53 -54 0
-53 -55 0
-54 -55 0
49 50 51 52 53 54 55 0
-56 -57 0
-56 -58 0
-56 -59 0
-56 -60 0
-56 -61 0
-56 -62 0
-57 -58 0
-57 -59 0
-57 -60 0
-57 -61 0
-57 -62 0
-58 -59 0
-58 -60 0
-58 -61 0
-58 -62 0
-59 -60 0
-59 -61 0
-59 -62 0
-60 -61 0
-60 -62 0
-61 -62 0
56 57 58 59 60 61 62 0
-1 -35 -42 0
-1 -36 -43 0
-1 -37 -44 0
-1 -38 -45 0
-1 -39 -46 0
-1 -40 -47 0
-1 -41 -48 0
-2 -35 -49 0
-2 -36 -50 0
-2 -37 -51 0
-2 -38 -52 0
-2 -39 -53 0
-2 -40 -54 0
-2 -41 -55 0
-3 -35 -56 0
-3 -36 -57 0
-3 -37 -58 0
-3 -38 -59 0
-3 -39 -60 0
-3 -40 -61 0
-3 -41 -62 0
-4 -42 -49 0
-4 -43 -50 0
-4 -44 -51 0
-4 -45 -52 0
-4 -46 -53 0
-4 -47 -54 0
-4 -48 -55 0
-5 -42 -56 0
-5 -43 -57 0
-5 -44 -58 0
-5 -45 -59 0
-5 -46 -60 0
-5 -47 -61 0
-5 -48 -62 0
-6 -49 -56 0
-6 -50 -57 0
-6 -51 -58 0
-6 -52 -59 0
-6 -53 -60 0
-6 -54 -61 0
-6 -55 -62 0